Name: Ing0910-1
Courses: 141
Rooms: 21
Days: 5
Periods_per_day: 5
Curricula: 74
Constraints: 174

COURSES:
c1202 t000 4 3 79
c1398 t001 4 3 157
c0163 t002A 2 1 137
c1356 t002B 2 2 23
c0839 t002C 2 2 80
c1368 t003 2 2 8
c0857 t002A 5 2 20
c0861 t002B 5 2 20
c0865 t002C 5 2 20
c0868 t002D 5 2 20
c1042 t004 2 2 130
c1088 t005 2 2 38
c1403 t006 2 2 106
c1176 t002E 7 2 40
c1177 t007 7 2 40
c1199 t008 2 2 74
c1204 t009 2 2 140
c1314 t002F 2 2 124
c1354 t010 2 2 37
c1381 t011 4 3 150
c1384 t012 3 3 150
c1386 t013 2 2 150
c1391 t014 1 1 55
c1392 t015 2 2 8
c1400 t016 2 2 85
c1402 t017 2 2 96
c1417 t018 2 2 28
c1419 t019 2 2 60
c1425 t002 2 2 20
c1427 t020 2 2 50
c1428 t004 2 2 10
c1430 t021 2 2 124
c1439 t002G 2 2 50
c1442 t022 2 2 143
c1449 t020 2 2 24
c1452 t012 2 2 8
c1456 t002D 2 2 25
c1500 t002E 2 2 12
c1463 t023 2 2 31
c1464 t024 2 2 54
c1484 t025 4 3 19
c1466 t024 2 2 16
c1486 t026 4 3 16
c1480 t017 2 2 26
c1481 t027 2 2 26
c1490 t002F 2 2 12
c1509 t028 2 2 15
c1514 t029 2 2 10
c1515 t002G 2 2 16
c1518 t010 2 2 60
c1521 t030 1 1 37
c1532 t031 2 2 38
c1535 t032 2 2 38
c1537 t030 2 2 23
c1544 t002H 2 2 15
c1545 t033 2 2 37
c1546 t034 2 2 17
c1548 t002I 2 2 14
c1551 t035 1 1 37
c1555 t002J 2 2 77
c1556 t002K 2 2 77
c1570 t002L 2 2 67
c1572 t036 2 2 67
c1573 t037 2 2 67
c1645 t038 4 3 60
c1667 t039 2 2 45
c1659 t040 4 3 60
c1580 t041 2 2 55
c1596 t042 4 2 80
c1598 t043 5 2 160
c1599 t044 4 3 160
c1606 t045 4 2 160
c1609 t043 3 3 252
c1613 t046 3 3 240
c1615 t002F 2 2 240
c1619 t016 2 2 312
c1622 t047 2 2 240
c1635 t002G 3 3 80
c1636 t002H 2 2 80
c1646 t048 4 3 60
c1649 t049 2 2 60
c1655 t050 2 2 60
c1656 t051 2 2 90
c1657 t052 2 2 60
c1669 t053 2 2 45
c1670 t005 2 2 45
c1671 t054 2 2 45
c1674 t055 2 2 30
c1678 t056 2 2 114
c1679 t057 2 2 114
c1683 t002I 2 2 114
c1697 t058 2 2 125
c1698 t059 2 2 125
c1699 t060 4 3 125
c1701 t049 2 2 125
c1703 t061 2 2 83
c1705 t062 2 2 80
c1708 t063 2 2 80
c1709 t064 2 2 80
c1715 t065 2 2 124
c1717 t066 2 2 80
c1718 t002J 2 2 80
c1721 t067 3 3 284
c1726 t030 3 3 124
c1735 t068 2 2 174
c1747 t058 2 2 121
c1751 t002K 2 2 105
c1758 t055 2 2 12
c1759 t041 2 2 118
c1761 t069 2 2 68
c1787 t070 2 1 75
c1762 t069 2 2 68
c1763 t071 2 2 68
c1764 t072 2 2 68
c1782 t073 2 2 20
c1783 t074 4 4 75
c1792 t075 2 2 115
c1827 t002L 2 2 24
c1829 t076 2 2 17
c1832 t077 2 2 29
c1834 t019 2 2 15
c1835 t078 2 2 15
c1850 t006 2 2 12
c1858 t002M 2 2 3
c1866 t079 2 2 90
c1868 t002N 2 2 90
c1869 t002O 2 2 90
c1870 t080 2 2 90
c1875 t081 2 2 80
c1877 t082 2 2 80
c1525 t083 2 2 28
c1879 t028 2 2 80
c1882 t084 2 2 80
c1884 t073 2 2 174
c1885 t085 2 2 110
c1886 t086 4 3 70
c1887 t087 2 2 143
c1888 t085 2 2 70
c1928 t002P 2 2 90
c1929 t002Q 2 2 37
c1940 t002R 1 1 37

ROOMS:
r25 40
r36 42
r37 42
r38 48
r34 50
r27 65
B 216
D 216
F 216
G 216
A 312
L 336
N 30
Er1 70
Er2 70
r52 60
E 216
r50 75
r51 78
DS1 60
DS2 60

CURRICULA:
q000 5 c1866 c1868 c1869 c1870 c1928 
q001 5 c1875 c1877 c1879 c1882 c1884 
q002 5 c1884 c1885 c1886 c1887 c1888 
q003 4 c1381 c1384 c1751 c1386 
q004 5 c1758 c1759 c1199 c1202 c1884 
q005 4 c1759 c1199 c1202 c1884 
q006 5 c1834 c1835 c1827 c1829 c1832 
q007 4 c1402 c1398 c1481 c1850 
q008 7 c1834 c1835 c1484 c1858 c1703 c1463 c1392 
q009 3 c1645 c1646 c1649 
q010 4 c1655 c1657 c1659 c1656 
q011 6 c1656 c1667 c1669 c1670 c1671 c1674 
q012 4 c1667 c1669 c1670 c1671 
q013 3 c1381 c1384 c1386 
q014 6 c1204 c1751 c1392 c1202 c0163 c1391 
q015 6 c1199 c1202 c1204 c1751 c1759 c1391 
q016 5 c1204 c1398 c1400 c1402 c1403 
q017 4 c1204 c1398 c1400 c1427 
q018 3 c1204 c1398 c1400 
q019 4 c1697 c1698 c1699 c1701 
q020 4 c1721 c1314 c1715 c1726 
q021 6 c1678 c1679 c1887 c1735 c1683 c1721 
q022 5 c1678 c1679 c1887 c1735 c1683 
q023 6 c1678 c1679 c1887 c1735 c1683 c1442 
q024 4 c1609 c1619 c0163 c1042 
q025 3 c1609 c1619 c0163 
q029 5 c1678 c1679 c1735 c1683 c1721 
q030 5 c1678 c1679 c1735 c1683 c1518 
q031 5 c1678 c1679 c1735 c1683 c1747 
q032 5 c1555 c1556 c1551 c1929 c1518 
q033 5 c1747 c1555 c1556 c1551 c1929 
q034 5 c1747 c1555 c1556 c1580 c1442 
q035 4 c1747 c1555 c1556 c1580 
q036 6 c1570 c1572 c1573 c1747 c1545 c1546 
q037 6 c1570 c1572 c1573 c1518 c1545 c1525 
q038 5 c1570 c1572 c1573 c1885 c1792 
q039 6 c1570 c1572 c1573 c1829 c1509 c1832 
q040 8 c1402 c1417 c1419 c1398 c1425 c1430 c1759 c1427 
q041 8 c1402 c1417 c1419 c1398 c1425 c1430 c1759 c1428 
q042 6 c1419 c1398 c1430 c1759 c1449 c1402 
q043 6 c1419 c1398 c1430 c1759 c1449 c1417 
q044 6 c1419 c1398 c1430 c1759 c1449 c1452 
q045 4 c1439 c1464 c1442 c1403 
q046 5 c1439 c1442 c1403 c1464 c1456 
q047 5 c1354 c1356 c1518 c1521 c1940 
q048 6 c1354 c1518 c1521 c1940 c1356 c1747 
q049 6 c1354 c1518 c1521 c1940 c1747 c1548 
q050 6 c1088 c1532 c1535 c1368 c1525 c1537 
q051 7 c1088 c1532 c1535 c1546 c1537 c1544 c1545 
q052 5 c1088 c1532 c1535 c1929 c1551 
q053 4 c1761 c1762 c1763 c1764 
q054 5 c1761 c1762 c1763 c1764 c1442 
q055 5 c1761 c1762 c1763 c1764 c1782 
q056 4 c1783 c1787 c1792 c1735 
q057 3 c1783 c1787 c1792 
q058 5 c1463 c1490 c1500 c1827 c1832 
q059 7 c1402 c1464 c1419 c1403 c1398 c1463 c1466 
q060 7 c1402 c1463 c1419 c1403 c1398 c1515 c1466 
q061 4 c1509 c1514 c1480 c1481 
q062 5 c1481 c1484 c1486 c1480 c1515 
q063 3 c1484 c1486 c1480 
q064 4 c0839 c1430 c1177 c0857 
q065 4 c0839 c1430 c1176 c0857 
q066 4 c0839 c1430 c1177 c0861 
q067 4 c0839 c1430 c1176 c0861 
q068 4 c0839 c1430 c1177 c0865 
q069 4 c0839 c1430 c1176 c0865 
q070 4 c0839 c1430 c1177 c0868 
q071 4 c0839 c1430 c1176 c0868 
q072 6 c1703 c1705 c1708 c1709 c1717 c1718 
q073 4 c1596 c1598 c1599 c1606 
q074 5 c1598 c1599 c1606 c1635 c1636 
q075 5 c1609 c1613 c1615 c1619 c1622 
q076 4 c1613 c1615 c1619 c1622 

UNAVAILABILITY_CONSTRAINTS:
c1356 0 0
c1356 0 1
c1356 0 2
c1356 0 3
c1356 0 4
c1356 1 0
c1356 1 2
c1356 2 0
c1356 2 1
c1356 2 2
c1356 4 0
c1356 4 1
c1356 4 3
c1356 4 4
c0839 0 2
c1368 0 0
c1368 0 1
c1368 0 2
c1368 0 3
c1368 0 4
c1368 3 3
c1368 3 4
c1368 4 3
c1368 4 4
c0857 0 2
c0861 0 2
c0865 0 2
c0868 0 2
c1199 0 0
c1199 0 1
c1199 0 2
c1199 0 3
c1199 0 4
c1392 0 0
c1392 0 1
c1392 0 2
c1392 0 3
c1392 0 4
c1392 1 0
c1392 1 1
c1392 1 2
c1392 1 3
c1392 1 4
c1392 2 0
c1392 2 1
c1392 2 2
c1392 2 3
c1392 2 4
c1417 0 2
c1417 1 2
c1417 2 2
c1417 3 2
c1417 4 2
c1430 0 2
c1464 0 0
c1464 0 1
c1464 0 2
c1464 0 3
c1464 0 4
c1464 1 0
c1464 1 1
c1464 1 2
c1464 1 3
c1464 1 4
c1464 2 0
c1464 3 0
c1464 4 0
c1509 0 2
c1509 1 2
c1509 2 2
c1509 3 2
c1509 4 2
c1545 0 0
c1545 0 4
c1545 1 0
c1545 1 4
c1545 2 0
c1545 2 4
c1545 3 0
c1545 3 4
c1545 4 0
c1545 4 4
c1546 0 0
c1546 0 1
c1546 4 3
c1546 4 4
c1609 0 0
c1609 0 1
c1609 0 2
c1609 0 3
c1609 0 4
c1609 1 0
c1609 1 1
c1609 1 2
c1609 1 3
c1609 1 4
c1613 4 0
c1613 4 1
c1613 4 2
c1613 4 3
c1613 4 4
c1619 0 0
c1619 0 1
c1619 0 2
c1619 0 3
c1619 0 4
c1619 1 0
c1671 0 0
c1671 0 1
c1671 0 2
c1671 4 2
c1671 4 3
c1671 4 4
c1697 0 4
c1697 1 4
c1697 2 1
c1697 2 2
c1697 2 3
c1697 2 4
c1697 3 4
c1697 4 4
c1715 0 0
c1715 0 1
c1715 0 2
c1715 0 3
c1715 0 4
c1715 1 2
c1715 2 2
c1715 3 2
c1715 3 3
c1715 4 0
c1715 4 1
c1715 4 2
c1715 4 3
c1715 4 4
c1866 0 2
c1866 0 3
c1866 0 4
c1866 1 2
c1866 1 3
c1866 1 4
c1866 2 2
c1866 2 3
c1866 2 4
c1866 3 2
c1866 3 3
c1866 3 4
c1866 4 2
c1866 4 3
c1866 4 4
c1877 3 0
c1877 3 1
c1877 3 2
c1877 3 3
c1877 3 4
c1877 4 0
c1877 4 1
c1877 4 2
c1877 4 3
c1877 4 4
c1525 0 0
c1525 0 1
c1525 0 2
c1525 0 3
c1525 0 4
c1525 2 1
c1525 2 2
c1525 2 3
c1882 0 0
c1882 0 1
c1882 0 2
c1882 3 0
c1882 3 1
c1882 3 2

END.
